nbrTasks = 9;
nbrMachines = 2;
nbrTools = 2;
names = ["Turn top-button","Take ring","Mount ring on top-button, hold","Mount ring on top-button, mount","Fixate top-button","Put top-button-ring in top_tray","Change to base-grabber tool","Take top-button-ring from top_tray","Take bottom"];

duration = [4,2,52,52,3,1,12,1,1];

% Trays
% 1: Top traý
% 2: Button tray
% 3: Ring tray
% 4: Bottom tray
% 5: Switch tray
tray = [0,3,0,0,0,1,0,1,4];

% Fixtures
% 1: Front fixture
fixture = [0,0,0,0,1,0,0,0,0];

% Components
% 1: Top
% 2: Button
% 3: Ring
% 4: Bottom
% 5: Switch
% 6: top-button
% 7: top-button-ring
% 8: bottom-switch
component = [|6,3,3,3,7,7,0,7,4|
	      0,0,6,6,0,0,0,0,0|];
nbrComponents = 5;
maxComponentsUsed = 2;

component_created = [0,0,7,7,0,0,0,0,0];

maxConcurrentTasks = 2;
nbrConcurrentGroups = 1;
concurrentTasks =  [|3,4|];

% Individual dependencies
%dependencies =[|
%0,0,1,1,0,0,0,0,0|
%0,0,1,1,0,0,0,0,0|
%0,0,0,0,1,0,0,0,0|
%0,0,0,0,1,0,0,0,0|
%0,0,0,0,0,1,0,0,0|
%0,0,0,0,0,0,0,1,0|
%0,0,0,0,0,0,0,0,0|
%0,0,0,0,0,0,0,0,0|
%0,0,0,0,0,0,0,0,0|];

orderedGroups = 2;
maxOrderedLength = 4;
order = [|
1,3,5,6|
2,4,0,0|];

resources = [1,1,1,1,1,1,1,1,1];

coords = [|7,9,7,9
	  |7,9,7,9
	  |14,9,14,9
	  |7,9,7,9
	  |7,9,7,9
	  |9,2,9,2
	  |4,9,4,9
	  |8,12,8,12
	  |4,9,4,9
	  |11,9,11,9|];

tools_needed = [1,1,1,1,1,1,0,1,2];
tool_changes = 1;
changes_tool = [|7|
		 2|];
default_tool = [1,1];
